[VALIDATOR STDOUT]
Type-checking walk
...action passes type checking.
Type-checking pickup_spanner
...action passes type checking.
Type-checking tighten_nut
...action passes type checking.
Checking plan: /home/jfan5/Safety-gen/runs/benchmark/optic/spanner_20260205_141553/spanner/optic_results/spanner-s5-n4-l7-s5001.plan
Plan to validate:

Plan size: 16
1:
(walk shed location1 bob)
 
2:
(walk location1 location2 bob)
 
3:
(walk location2 location3 bob)
 
4:
(walk location3 location4 bob)
 
5:
(pickup_spanner location4 spanner4 bob)
 
6:
(walk location4 location5 bob)
 
7:
(pickup_spanner location5 spanner1 bob)
 
8:
(walk location5 location6 bob)
 
9:
(pickup_spanner location6 spanner3 bob)
 
10:
(pickup_spanner location6 spanner5 bob)
 
11:
(walk location6 location7 bob)
 
12:
(walk location7 gate bob)
 
13:
(tighten_nut gate spanner1 bob nut4)
 
14:
(tighten_nut gate spanner3 bob nut3)
 
15:
(tighten_nut gate spanner4 bob nut2)
 
16:
(tighten_nut gate spanner5 bob nut1)
 

Plan Validation details
-----------------------

Checking next happening (time 1)
Deleting (at bob shed)
Adding (at bob location1)

Checking next happening (time 2)
Deleting (at bob location1)
Adding (at bob location2)

Checking next happening (time 3)
Deleting (at bob location2)
Adding (at bob location3)

Checking next happening (time 4)
Deleting (at bob location3)
Adding (at bob location4)

Checking next happening (time 5)
Deleting (at spanner4 location4)
Adding (carrying bob spanner4)

Checking next happening (time 6)
Deleting (at bob location4)
Adding (at bob location5)

Checking next happening (time 7)
Deleting (at spanner1 location5)
Adding (carrying bob spanner1)

Checking next happening (time 8)
Deleting (at bob location5)
Adding (at bob location6)

Checking next happening (time 9)
Deleting (at spanner3 location6)
Adding (carrying bob spanner3)

Checking next happening (time 10)
Deleting (at spanner5 location6)
Adding (carrying bob spanner5)

Checking next happening (time 11)
Deleting (at bob location6)
Adding (at bob location7)

Checking next happening (time 12)
Deleting (at bob location7)
Adding (at bob gate)

Checking next happening (time 13)
Deleting (loose nut4)
Deleting (useable spanner1)
Adding (tightened nut4)

Checking next happening (time 14)
Deleting (loose nut3)
Deleting (useable spanner3)
Adding (tightened nut3)

Checking next happening (time 15)
Deleting (loose nut2)
Deleting (useable spanner4)
Adding (tightened nut2)

Checking next happening (time 16)
Deleting (loose nut1)
Deleting (useable spanner5)
Adding (tightened nut1)
Plan executed successfully - checking goal
Plan valid
Final value: 16 

Successful plans:
Value: 16
 /home/jfan5/Safety-gen/runs/benchmark/optic/spanner_20260205_141553/spanner/optic_results/spanner-s5-n4-l7-s5001.plan 16
